Version identifier: 22.1.0.0 | 2022-03-09 | 1a383f8ce
CPXPARAM_Threads                                 1
CPXPARAM_MIP_Strategy_VariableSelect             3
CPXPARAM_TimeLimit                               599.99995316800005
1 of 1 MIP starts provided solutions.
MIP start 'm1' defined initial solution with objective 261.0000.
Tried aggregator 1 time.
MIP Presolve eliminated 329 rows and 1260 columns.
MIP Presolve modified 4 coefficients.
Reduced MIP has 2203 rows, 2520 columns, and 28226 nonzeros.
Reduced MIP has 2520 binaries, 0 generals, 0 SOSs, and 0 indicators.
Presolve time = 0.02 sec. (17.06 ticks)
Probing time = 0.00 sec. (2.64 ticks)
Tried aggregator 1 time.
Detecting symmetries...
MIP Presolve eliminated 1 rows and 0 columns.
Reduced MIP has 2202 rows, 2520 columns, and 28218 nonzeros.
Reduced MIP has 2520 binaries, 0 generals, 0 SOSs, and 0 indicators.
Presolve time = 0.02 sec. (16.22 ticks)
Probing time = 0.00 sec. (2.64 ticks)
Clique table members: 1254.
MIP emphasis: balance optimality and feasibility.
MIP search method: dynamic search.
Parallel mode: none, using 1 thread.
Root relaxation solution time = 0.02 sec. (19.32 ticks)

        Nodes                                         Cuts/
   Node  Left     Objective  IInf  Best Integer    Best Bound    ItCnt     Gap

*     0+    0                          261.0000     2520.0000           865.52%
*     0     0      integral     0      315.0000      315.0000      630    0.00%
Elapsed time = 0.08 sec. (68.49 ticks, tree = 0.00 MB, solutions = 2)

Root node processing (before b&c):
  Real time             =    0.08 sec. (68.64 ticks)
Sequential b&c:
  Real time             =    0.00 sec. (0.00 ticks)
                          ------------
Total (root+branch&cut) =    0.08 sec. (68.64 ticks)
Primal:	315
Dual:	315
Status:	Optimal
Time:	0.1
Sequence:
	0
	9
	9
	9
	9
	9
	9
	9
	9
	9
	9
	9
	6
	4
	9
	9
	9
	9
	9
	9
	9
	4
	4
	9
	9
	8
	1
	4
	9
	4
	4
	9
	1
	4
	1
	4
	4
	0
	4
	1
	9
	9
	9
	9
	9
	9
	9
	9
	9
	9
	9
	6
	9
	9
	9
	1
	9
	1
	9
	10
	9
	1
	9
	1
	9
	9
	1
	8
	10
	9
	1
	0
	1
	9
	1
	9
	1
	9
	1
	9
	9
	1
	4
	1
	4
	9
	1
	9
	1
	4
	1
	4
	4
	9
	6
	0
	4
	4
	1
	4
	1
	4
	9
	6
	4
	9
	5
	9
	9
	9
	6
	9
	9
	9
	9
	4
	4
	9
	4
	9
	4
	9
	4
	4
	9
	9
	4
	4
	1
	4
	4
	9
	4
	4
	9
	4
	9
	9
	4
	4
	9
	4
	9
	4
	4
	9
	9
	4
	9
	4
	9
	9
	9
	4
	4
	1
	4
	0
	4
	9
	6
	4
	9
	4
	1
	9
	4
	9
	4
	0
	6
	4
	1
	9
	6
	4
	0
	9
	4
	1
	0
	9
	4
	4
	0
	4
	6
	9
	0
	9
	5
	0
	9
	1
	0
	4
	1
	0
	9
	4
	0
	4
	9
	0
	4
	6
	9
	0
	5
	4
	9
	9
	0
	4
	5
	0
	4
	6
	0
	1
	4
	9
	0
	1
	4
	6
	0
	10
	4
	0
	4
	4
	0
	9
	6
	0
	4
	4
	9
	9
	0
	9
	9
	4
	6
	9
	4
	4
	9
	4
	4
	9
	5
	4
	1
	9
	9
	9
	0
	9
	1
	9
	1
	4
	9
	1
	0
	4
	4
	0
	4
	9
	1
	9
	1
	4
	1
	9
	1
	9
	1
	4
	1
	4
	1
	4
	4
	9
	4
	4
	1
	4
	4
	1
	4
	1
	0
	1
	4
	1
	4
	4
	1
	9
	6
	4
	10
	4
	9
	0
	4
	6
	9
	4
	0
